% Auto-generated by scripts/generate_dzn.py
% problem_type   = polyominoes
% instance       = polyominoes_63
% source_json    = instances_json/0_low_blowup/polyominoes_63.json
% blowup         = 1.037037037037037
% representation = NFA

mode = 1;

size = 4;
tiles = 12;
n_expressions = 12;
Q = 18;
S = 13;
q0 = [1, 1, 1, 1, 1, 1, 1, 1, 1, 1, 1, 1];
F = [{2}, {2}, {4}, {2}, {2}, {4}, {2}, {2}, {2}, {8}, {2}, {2}];
d_dfa = array3d(1..12, 1..18, 1..13, [
  % k = 1
    0, 0, 0, 0, 0, 0, 0, 0, 0, 0, 0, 0, 0,
    0, 0, 0, 0, 0, 0, 0, 0, 0, 0, 0, 0, 0,
    0, 0, 0, 0, 0, 0, 0, 0, 0, 0, 0, 0, 0,
    0, 0, 0, 0, 0, 0, 0, 0, 0, 0, 0, 0, 0,
    0, 0, 0, 0, 0, 0, 0, 0, 0, 0, 0, 0, 0,
    0, 0, 0, 0, 0, 0, 0, 0, 0, 0, 0, 0, 0,
    0, 0, 0, 0, 0, 0, 0, 0, 0, 0, 0, 0, 0,
    0, 0, 0, 0, 0, 0, 0, 0, 0, 0, 0, 0, 0,
    0, 0, 0, 0, 0, 0, 0, 0, 0, 0, 0, 0, 0,
    0, 0, 0, 0, 0, 0, 0, 0, 0, 0, 0, 0, 0,
    0, 0, 0, 0, 0, 0, 0, 0, 0, 0, 0, 0, 0,
    0, 0, 0, 0, 0, 0, 0, 0, 0, 0, 0, 0, 0,
    0, 0, 0, 0, 0, 0, 0, 0, 0, 0, 0, 0, 0,
    0, 0, 0, 0, 0, 0, 0, 0, 0, 0, 0, 0, 0,
    0, 0, 0, 0, 0, 0, 0, 0, 0, 0, 0, 0, 0,
    0, 0, 0, 0, 0, 0, 0, 0, 0, 0, 0, 0, 0,
    0, 0, 0, 0, 0, 0, 0, 0, 0, 0, 0, 0, 0,
    0, 0, 0, 0, 0, 0, 0, 0, 0, 0, 0, 0, 0,

  % k = 2
    0, 0, 0, 0, 0, 0, 0, 0, 0, 0, 0, 0, 0,
    0, 0, 0, 0, 0, 0, 0, 0, 0, 0, 0, 0, 0,
    0, 0, 0, 0, 0, 0, 0, 0, 0, 0, 0, 0, 0,
    0, 0, 0, 0, 0, 0, 0, 0, 0, 0, 0, 0, 0,
    0, 0, 0, 0, 0, 0, 0, 0, 0, 0, 0, 0, 0,
    0, 0, 0, 0, 0, 0, 0, 0, 0, 0, 0, 0, 0,
    0, 0, 0, 0, 0, 0, 0, 0, 0, 0, 0, 0, 0,
    0, 0, 0, 0, 0, 0, 0, 0, 0, 0, 0, 0, 0,
    0, 0, 0, 0, 0, 0, 0, 0, 0, 0, 0, 0, 0,
    0, 0, 0, 0, 0, 0, 0, 0, 0, 0, 0, 0, 0,
    0, 0, 0, 0, 0, 0, 0, 0, 0, 0, 0, 0, 0,
    0, 0, 0, 0, 0, 0, 0, 0, 0, 0, 0, 0, 0,
    0, 0, 0, 0, 0, 0, 0, 0, 0, 0, 0, 0, 0,
    0, 0, 0, 0, 0, 0, 0, 0, 0, 0, 0, 0, 0,
    0, 0, 0, 0, 0, 0, 0, 0, 0, 0, 0, 0, 0,
    0, 0, 0, 0, 0, 0, 0, 0, 0, 0, 0, 0, 0,
    0, 0, 0, 0, 0, 0, 0, 0, 0, 0, 0, 0, 0,
    0, 0, 0, 0, 0, 0, 0, 0, 0, 0, 0, 0, 0,

  % k = 3
    0, 0, 0, 0, 0, 0, 0, 0, 0, 0, 0, 0, 0,
    0, 0, 0, 0, 0, 0, 0, 0, 0, 0, 0, 0, 0,
    0, 0, 0, 0, 0, 0, 0, 0, 0, 0, 0, 0, 0,
    0, 0, 0, 0, 0, 0, 0, 0, 0, 0, 0, 0, 0,
    0, 0, 0, 0, 0, 0, 0, 0, 0, 0, 0, 0, 0,
    0, 0, 0, 0, 0, 0, 0, 0, 0, 0, 0, 0, 0,
    0, 0, 0, 0, 0, 0, 0, 0, 0, 0, 0, 0, 0,
    0, 0, 0, 0, 0, 0, 0, 0, 0, 0, 0, 0, 0,
    0, 0, 0, 0, 0, 0, 0, 0, 0, 0, 0, 0, 0,
    0, 0, 0, 0, 0, 0, 0, 0, 0, 0, 0, 0, 0,
    0, 0, 0, 0, 0, 0, 0, 0, 0, 0, 0, 0, 0,
    0, 0, 0, 0, 0, 0, 0, 0, 0, 0, 0, 0, 0,
    0, 0, 0, 0, 0, 0, 0, 0, 0, 0, 0, 0, 0,
    0, 0, 0, 0, 0, 0, 0, 0, 0, 0, 0, 0, 0,
    0, 0, 0, 0, 0, 0, 0, 0, 0, 0, 0, 0, 0,
    0, 0, 0, 0, 0, 0, 0, 0, 0, 0, 0, 0, 0,
    0, 0, 0, 0, 0, 0, 0, 0, 0, 0, 0, 0, 0,
    0, 0, 0, 0, 0, 0, 0, 0, 0, 0, 0, 0, 0,

  % k = 4
    0, 0, 0, 0, 0, 0, 0, 0, 0, 0, 0, 0, 0,
    0, 0, 0, 0, 0, 0, 0, 0, 0, 0, 0, 0, 0,
    0, 0, 0, 0, 0, 0, 0, 0, 0, 0, 0, 0, 0,
    0, 0, 0, 0, 0, 0, 0, 0, 0, 0, 0, 0, 0,
    0, 0, 0, 0, 0, 0, 0, 0, 0, 0, 0, 0, 0,
    0, 0, 0, 0, 0, 0, 0, 0, 0, 0, 0, 0, 0,
    0, 0, 0, 0, 0, 0, 0, 0, 0, 0, 0, 0, 0,
    0, 0, 0, 0, 0, 0, 0, 0, 0, 0, 0, 0, 0,
    0, 0, 0, 0, 0, 0, 0, 0, 0, 0, 0, 0, 0,
    0, 0, 0, 0, 0, 0, 0, 0, 0, 0, 0, 0, 0,
    0, 0, 0, 0, 0, 0, 0, 0, 0, 0, 0, 0, 0,
    0, 0, 0, 0, 0, 0, 0, 0, 0, 0, 0, 0, 0,
    0, 0, 0, 0, 0, 0, 0, 0, 0, 0, 0, 0, 0,
    0, 0, 0, 0, 0, 0, 0, 0, 0, 0, 0, 0, 0,
    0, 0, 0, 0, 0, 0, 0, 0, 0, 0, 0, 0, 0,
    0, 0, 0, 0, 0, 0, 0, 0, 0, 0, 0, 0, 0,
    0, 0, 0, 0, 0, 0, 0, 0, 0, 0, 0, 0, 0,
    0, 0, 0, 0, 0, 0, 0, 0, 0, 0, 0, 0, 0,

  % k = 5
    0, 0, 0, 0, 0, 0, 0, 0, 0, 0, 0, 0, 0,
    0, 0, 0, 0, 0, 0, 0, 0, 0, 0, 0, 0, 0,
    0, 0, 0, 0, 0, 0, 0, 0, 0, 0, 0, 0, 0,
    0, 0, 0, 0, 0, 0, 0, 0, 0, 0, 0, 0, 0,
    0, 0, 0, 0, 0, 0, 0, 0, 0, 0, 0, 0, 0,
    0, 0, 0, 0, 0, 0, 0, 0, 0, 0, 0, 0, 0,
    0, 0, 0, 0, 0, 0, 0, 0, 0, 0, 0, 0, 0,
    0, 0, 0, 0, 0, 0, 0, 0, 0, 0, 0, 0, 0,
    0, 0, 0, 0, 0, 0, 0, 0, 0, 0, 0, 0, 0,
    0, 0, 0, 0, 0, 0, 0, 0, 0, 0, 0, 0, 0,
    0, 0, 0, 0, 0, 0, 0, 0, 0, 0, 0, 0, 0,
    0, 0, 0, 0, 0, 0, 0, 0, 0, 0, 0, 0, 0,
    0, 0, 0, 0, 0, 0, 0, 0, 0, 0, 0, 0, 0,
    0, 0, 0, 0, 0, 0, 0, 0, 0, 0, 0, 0, 0,
    0, 0, 0, 0, 0, 0, 0, 0, 0, 0, 0, 0, 0,
    0, 0, 0, 0, 0, 0, 0, 0, 0, 0, 0, 0, 0,
    0, 0, 0, 0, 0, 0, 0, 0, 0, 0, 0, 0, 0,
    0, 0, 0, 0, 0, 0, 0, 0, 0, 0, 0, 0, 0,

  % k = 6
    0, 0, 0, 0, 0, 0, 0, 0, 0, 0, 0, 0, 0,
    0, 0, 0, 0, 0, 0, 0, 0, 0, 0, 0, 0, 0,
    0, 0, 0, 0, 0, 0, 0, 0, 0, 0, 0, 0, 0,
    0, 0, 0, 0, 0, 0, 0, 0, 0, 0, 0, 0, 0,
    0, 0, 0, 0, 0, 0, 0, 0, 0, 0, 0, 0, 0,
    0, 0, 0, 0, 0, 0, 0, 0, 0, 0, 0, 0, 0,
    0, 0, 0, 0, 0, 0, 0, 0, 0, 0, 0, 0, 0,
    0, 0, 0, 0, 0, 0, 0, 0, 0, 0, 0, 0, 0,
    0, 0, 0, 0, 0, 0, 0, 0, 0, 0, 0, 0, 0,
    0, 0, 0, 0, 0, 0, 0, 0, 0, 0, 0, 0, 0,
    0, 0, 0, 0, 0, 0, 0, 0, 0, 0, 0, 0, 0,
    0, 0, 0, 0, 0, 0, 0, 0, 0, 0, 0, 0, 0,
    0, 0, 0, 0, 0, 0, 0, 0, 0, 0, 0, 0, 0,
    0, 0, 0, 0, 0, 0, 0, 0, 0, 0, 0, 0, 0,
    0, 0, 0, 0, 0, 0, 0, 0, 0, 0, 0, 0, 0,
    0, 0, 0, 0, 0, 0, 0, 0, 0, 0, 0, 0, 0,
    0, 0, 0, 0, 0, 0, 0, 0, 0, 0, 0, 0, 0,
    0, 0, 0, 0, 0, 0, 0, 0, 0, 0, 0, 0, 0,

  % k = 7
    0, 0, 0, 0, 0, 0, 0, 0, 0, 0, 0, 0, 0,
    0, 0, 0, 0, 0, 0, 0, 0, 0, 0, 0, 0, 0,
    0, 0, 0, 0, 0, 0, 0, 0, 0, 0, 0, 0, 0,
    0, 0, 0, 0, 0, 0, 0, 0, 0, 0, 0, 0, 0,
    0, 0, 0, 0, 0, 0, 0, 0, 0, 0, 0, 0, 0,
    0, 0, 0, 0, 0, 0, 0, 0, 0, 0, 0, 0, 0,
    0, 0, 0, 0, 0, 0, 0, 0, 0, 0, 0, 0, 0,
    0, 0, 0, 0, 0, 0, 0, 0, 0, 0, 0, 0, 0,
    0, 0, 0, 0, 0, 0, 0, 0, 0, 0, 0, 0, 0,
    0, 0, 0, 0, 0, 0, 0, 0, 0, 0, 0, 0, 0,
    0, 0, 0, 0, 0, 0, 0, 0, 0, 0, 0, 0, 0,
    0, 0, 0, 0, 0, 0, 0, 0, 0, 0, 0, 0, 0,
    0, 0, 0, 0, 0, 0, 0, 0, 0, 0, 0, 0, 0,
    0, 0, 0, 0, 0, 0, 0, 0, 0, 0, 0, 0, 0,
    0, 0, 0, 0, 0, 0, 0, 0, 0, 0, 0, 0, 0,
    0, 0, 0, 0, 0, 0, 0, 0, 0, 0, 0, 0, 0,
    0, 0, 0, 0, 0, 0, 0, 0, 0, 0, 0, 0, 0,
    0, 0, 0, 0, 0, 0, 0, 0, 0, 0, 0, 0, 0,

  % k = 8
    0, 0, 0, 0, 0, 0, 0, 0, 0, 0, 0, 0, 0,
    0, 0, 0, 0, 0, 0, 0, 0, 0, 0, 0, 0, 0,
    0, 0, 0, 0, 0, 0, 0, 0, 0, 0, 0, 0, 0,
    0, 0, 0, 0, 0, 0, 0, 0, 0, 0, 0, 0, 0,
    0, 0, 0, 0, 0, 0, 0, 0, 0, 0, 0, 0, 0,
    0, 0, 0, 0, 0, 0, 0, 0, 0, 0, 0, 0, 0,
    0, 0, 0, 0, 0, 0, 0, 0, 0, 0, 0, 0, 0,
    0, 0, 0, 0, 0, 0, 0, 0, 0, 0, 0, 0, 0,
    0, 0, 0, 0, 0, 0, 0, 0, 0, 0, 0, 0, 0,
    0, 0, 0, 0, 0, 0, 0, 0, 0, 0, 0, 0, 0,
    0, 0, 0, 0, 0, 0, 0, 0, 0, 0, 0, 0, 0,
    0, 0, 0, 0, 0, 0, 0, 0, 0, 0, 0, 0, 0,
    0, 0, 0, 0, 0, 0, 0, 0, 0, 0, 0, 0, 0,
    0, 0, 0, 0, 0, 0, 0, 0, 0, 0, 0, 0, 0,
    0, 0, 0, 0, 0, 0, 0, 0, 0, 0, 0, 0, 0,
    0, 0, 0, 0, 0, 0, 0, 0, 0, 0, 0, 0, 0,
    0, 0, 0, 0, 0, 0, 0, 0, 0, 0, 0, 0, 0,
    0, 0, 0, 0, 0, 0, 0, 0, 0, 0, 0, 0, 0,

  % k = 9
    0, 0, 0, 0, 0, 0, 0, 0, 0, 0, 0, 0, 0,
    0, 0, 0, 0, 0, 0, 0, 0, 0, 0, 0, 0, 0,
    0, 0, 0, 0, 0, 0, 0, 0, 0, 0, 0, 0, 0,
    0, 0, 0, 0, 0, 0, 0, 0, 0, 0, 0, 0, 0,
    0, 0, 0, 0, 0, 0, 0, 0, 0, 0, 0, 0, 0,
    0, 0, 0, 0, 0, 0, 0, 0, 0, 0, 0, 0, 0,
    0, 0, 0, 0, 0, 0, 0, 0, 0, 0, 0, 0, 0,
    0, 0, 0, 0, 0, 0, 0, 0, 0, 0, 0, 0, 0,
    0, 0, 0, 0, 0, 0, 0, 0, 0, 0, 0, 0, 0,
    0, 0, 0, 0, 0, 0, 0, 0, 0, 0, 0, 0, 0,
    0, 0, 0, 0, 0, 0, 0, 0, 0, 0, 0, 0, 0,
    0, 0, 0, 0, 0, 0, 0, 0, 0, 0, 0, 0, 0,
    0, 0, 0, 0, 0, 0, 0, 0, 0, 0, 0, 0, 0,
    0, 0, 0, 0, 0, 0, 0, 0, 0, 0, 0, 0, 0,
    0, 0, 0, 0, 0, 0, 0, 0, 0, 0, 0, 0, 0,
    0, 0, 0, 0, 0, 0, 0, 0, 0, 0, 0, 0, 0,
    0, 0, 0, 0, 0, 0, 0, 0, 0, 0, 0, 0, 0,
    0, 0, 0, 0, 0, 0, 0, 0, 0, 0, 0, 0, 0,

  % k = 10
    0, 0, 0, 0, 0, 0, 0, 0, 0, 0, 0, 0, 0,
    0, 0, 0, 0, 0, 0, 0, 0, 0, 0, 0, 0, 0,
    0, 0, 0, 0, 0, 0, 0, 0, 0, 0, 0, 0, 0,
    0, 0, 0, 0, 0, 0, 0, 0, 0, 0, 0, 0, 0,
    0, 0, 0, 0, 0, 0, 0, 0, 0, 0, 0, 0, 0,
    0, 0, 0, 0, 0, 0, 0, 0, 0, 0, 0, 0, 0,
    0, 0, 0, 0, 0, 0, 0, 0, 0, 0, 0, 0, 0,
    0, 0, 0, 0, 0, 0, 0, 0, 0, 0, 0, 0, 0,
    0, 0, 0, 0, 0, 0, 0, 0, 0, 0, 0, 0, 0,
    0, 0, 0, 0, 0, 0, 0, 0, 0, 0, 0, 0, 0,
    0, 0, 0, 0, 0, 0, 0, 0, 0, 0, 0, 0, 0,
    0, 0, 0, 0, 0, 0, 0, 0, 0, 0, 0, 0, 0,
    0, 0, 0, 0, 0, 0, 0, 0, 0, 0, 0, 0, 0,
    0, 0, 0, 0, 0, 0, 0, 0, 0, 0, 0, 0, 0,
    0, 0, 0, 0, 0, 0, 0, 0, 0, 0, 0, 0, 0,
    0, 0, 0, 0, 0, 0, 0, 0, 0, 0, 0, 0, 0,
    0, 0, 0, 0, 0, 0, 0, 0, 0, 0, 0, 0, 0,
    0, 0, 0, 0, 0, 0, 0, 0, 0, 0, 0, 0, 0,

  % k = 11
    0, 0, 0, 0, 0, 0, 0, 0, 0, 0, 0, 0, 0,
    0, 0, 0, 0, 0, 0, 0, 0, 0, 0, 0, 0, 0,
    0, 0, 0, 0, 0, 0, 0, 0, 0, 0, 0, 0, 0,
    0, 0, 0, 0, 0, 0, 0, 0, 0, 0, 0, 0, 0,
    0, 0, 0, 0, 0, 0, 0, 0, 0, 0, 0, 0, 0,
    0, 0, 0, 0, 0, 0, 0, 0, 0, 0, 0, 0, 0,
    0, 0, 0, 0, 0, 0, 0, 0, 0, 0, 0, 0, 0,
    0, 0, 0, 0, 0, 0, 0, 0, 0, 0, 0, 0, 0,
    0, 0, 0, 0, 0, 0, 0, 0, 0, 0, 0, 0, 0,
    0, 0, 0, 0, 0, 0, 0, 0, 0, 0, 0, 0, 0,
    0, 0, 0, 0, 0, 0, 0, 0, 0, 0, 0, 0, 0,
    0, 0, 0, 0, 0, 0, 0, 0, 0, 0, 0, 0, 0,
    0, 0, 0, 0, 0, 0, 0, 0, 0, 0, 0, 0, 0,
    0, 0, 0, 0, 0, 0, 0, 0, 0, 0, 0, 0, 0,
    0, 0, 0, 0, 0, 0, 0, 0, 0, 0, 0, 0, 0,
    0, 0, 0, 0, 0, 0, 0, 0, 0, 0, 0, 0, 0,
    0, 0, 0, 0, 0, 0, 0, 0, 0, 0, 0, 0, 0,
    0, 0, 0, 0, 0, 0, 0, 0, 0, 0, 0, 0, 0,

  % k = 12
    0, 0, 0, 0, 0, 0, 0, 0, 0, 0, 0, 0, 0,
    0, 0, 0, 0, 0, 0, 0, 0, 0, 0, 0, 0, 0,
    0, 0, 0, 0, 0, 0, 0, 0, 0, 0, 0, 0, 0,
    0, 0, 0, 0, 0, 0, 0, 0, 0, 0, 0, 0, 0,
    0, 0, 0, 0, 0, 0, 0, 0, 0, 0, 0, 0, 0,
    0, 0, 0, 0, 0, 0, 0, 0, 0, 0, 0, 0, 0,
    0, 0, 0, 0, 0, 0, 0, 0, 0, 0, 0, 0, 0,
    0, 0, 0, 0, 0, 0, 0, 0, 0, 0, 0, 0, 0,
    0, 0, 0, 0, 0, 0, 0, 0, 0, 0, 0, 0, 0,
    0, 0, 0, 0, 0, 0, 0, 0, 0, 0, 0, 0, 0,
    0, 0, 0, 0, 0, 0, 0, 0, 0, 0, 0, 0, 0,
    0, 0, 0, 0, 0, 0, 0, 0, 0, 0, 0, 0, 0,
    0, 0, 0, 0, 0, 0, 0, 0, 0, 0, 0, 0, 0,
    0, 0, 0, 0, 0, 0, 0, 0, 0, 0, 0, 0, 0,
    0, 0, 0, 0, 0, 0, 0, 0, 0, 0, 0, 0, 0,
    0, 0, 0, 0, 0, 0, 0, 0, 0, 0, 0, 0, 0,
    0, 0, 0, 0, 0, 0, 0, 0, 0, 0, 0, 0, 0,
    0, 0, 0, 0, 0, 0, 0, 0, 0, 0, 0, 0, 0
]);
d_nfa = array3d(1..12, 1..18, 1..13, [
  % k = 1
    {2}, {1}, {1}, {1}, {1}, {1}, {1}, {1}, {1}, {1}, {1}, {1}, {1},
    {}, {2}, {2}, {2}, {2}, {2}, {2}, {2}, {2}, {2}, {2}, {2}, {2},
    {}, {}, {}, {}, {}, {}, {}, {}, {}, {}, {}, {}, {},
    {}, {}, {}, {}, {}, {}, {}, {}, {}, {}, {}, {}, {},
    {}, {}, {}, {}, {}, {}, {}, {}, {}, {}, {}, {}, {},
    {}, {}, {}, {}, {}, {}, {}, {}, {}, {}, {}, {}, {},
    {}, {}, {}, {}, {}, {}, {}, {}, {}, {}, {}, {}, {},
    {}, {}, {}, {}, {}, {}, {}, {}, {}, {}, {}, {}, {},
    {}, {}, {}, {}, {}, {}, {}, {}, {}, {}, {}, {}, {},
    {}, {}, {}, {}, {}, {}, {}, {}, {}, {}, {}, {}, {},
    {}, {}, {}, {}, {}, {}, {}, {}, {}, {}, {}, {}, {},
    {}, {}, {}, {}, {}, {}, {}, {}, {}, {}, {}, {}, {},
    {}, {}, {}, {}, {}, {}, {}, {}, {}, {}, {}, {}, {},
    {}, {}, {}, {}, {}, {}, {}, {}, {}, {}, {}, {}, {},
    {}, {}, {}, {}, {}, {}, {}, {}, {}, {}, {}, {}, {},
    {}, {}, {}, {}, {}, {}, {}, {}, {}, {}, {}, {}, {},
    {}, {}, {}, {}, {}, {}, {}, {}, {}, {}, {}, {}, {},
    {}, {}, {}, {}, {}, {}, {}, {}, {}, {}, {}, {}, {},

  % k = 2
    {1}, {2}, {1}, {1}, {1}, {1}, {1}, {1}, {1}, {1}, {1}, {1}, {1},
    {2}, {}, {2}, {2}, {2}, {2}, {2}, {2}, {2}, {2}, {2}, {2}, {2},
    {}, {}, {}, {}, {}, {}, {}, {}, {}, {}, {}, {}, {},
    {}, {}, {}, {}, {}, {}, {}, {}, {}, {}, {}, {}, {},
    {}, {}, {}, {}, {}, {}, {}, {}, {}, {}, {}, {}, {},
    {}, {}, {}, {}, {}, {}, {}, {}, {}, {}, {}, {}, {},
    {}, {}, {}, {}, {}, {}, {}, {}, {}, {}, {}, {}, {},
    {}, {}, {}, {}, {}, {}, {}, {}, {}, {}, {}, {}, {},
    {}, {}, {}, {}, {}, {}, {}, {}, {}, {}, {}, {}, {},
    {}, {}, {}, {}, {}, {}, {}, {}, {}, {}, {}, {}, {},
    {}, {}, {}, {}, {}, {}, {}, {}, {}, {}, {}, {}, {},
    {}, {}, {}, {}, {}, {}, {}, {}, {}, {}, {}, {}, {},
    {}, {}, {}, {}, {}, {}, {}, {}, {}, {}, {}, {}, {},
    {}, {}, {}, {}, {}, {}, {}, {}, {}, {}, {}, {}, {},
    {}, {}, {}, {}, {}, {}, {}, {}, {}, {}, {}, {}, {},
    {}, {}, {}, {}, {}, {}, {}, {}, {}, {}, {}, {}, {},
    {}, {}, {}, {}, {}, {}, {}, {}, {}, {}, {}, {}, {},
    {}, {}, {}, {}, {}, {}, {}, {}, {}, {}, {}, {}, {},

  % k = 3
    {2, 5}, {2, 5}, {3, 6}, {2, 5}, {2, 5}, {2, 5}, {2, 5}, {2, 5}, {2, 5}, {2, 5}, {2, 5}, {2, 5}, {2, 5},
    {2}, {2}, {3}, {2}, {2}, {2}, {2}, {2}, {2}, {2}, {2}, {2}, {2},
    {}, {}, {4}, {}, {}, {}, {}, {}, {}, {}, {}, {}, {},
    {4}, {4}, {}, {4}, {4}, {4}, {4}, {4}, {4}, {4}, {4}, {4}, {4},
    {5}, {5}, {6}, {5}, {5}, {5}, {5}, {5}, {5}, {5}, {5}, {5}, {5},
    {7}, {7}, {}, {7}, {7}, {7}, {7}, {7}, {7}, {7}, {7}, {7}, {7},
    {8}, {8}, {}, {8}, {8}, {8}, {8}, {8}, {8}, {8}, {8}, {8}, {8},
    {9}, {9}, {}, {9}, {9}, {9}, {9}, {9}, {9}, {9}, {9}, {9}, {9},
    {3}, {3}, {}, {3}, {3}, {3}, {3}, {3}, {3}, {3}, {3}, {3}, {3},
    {}, {}, {}, {}, {}, {}, {}, {}, {}, {}, {}, {}, {},
    {}, {}, {}, {}, {}, {}, {}, {}, {}, {}, {}, {}, {},
    {}, {}, {}, {}, {}, {}, {}, {}, {}, {}, {}, {}, {},
    {}, {}, {}, {}, {}, {}, {}, {}, {}, {}, {}, {}, {},
    {}, {}, {}, {}, {}, {}, {}, {}, {}, {}, {}, {}, {},
    {}, {}, {}, {}, {}, {}, {}, {}, {}, {}, {}, {}, {},
    {}, {}, {}, {}, {}, {}, {}, {}, {}, {}, {}, {}, {},
    {}, {}, {}, {}, {}, {}, {}, {}, {}, {}, {}, {}, {},
    {}, {}, {}, {}, {}, {}, {}, {}, {}, {}, {}, {}, {},

  % k = 4
    {1}, {1}, {1}, {2}, {1}, {1}, {1}, {1}, {1}, {1}, {1}, {1}, {1},
    {2}, {2}, {2}, {}, {2}, {2}, {2}, {2}, {2}, {2}, {2}, {2}, {2},
    {}, {}, {}, {}, {}, {}, {}, {}, {}, {}, {}, {}, {},
    {}, {}, {}, {}, {}, {}, {}, {}, {}, {}, {}, {}, {},
    {}, {}, {}, {}, {}, {}, {}, {}, {}, {}, {}, {}, {},
    {}, {}, {}, {}, {}, {}, {}, {}, {}, {}, {}, {}, {},
    {}, {}, {}, {}, {}, {}, {}, {}, {}, {}, {}, {}, {},
    {}, {}, {}, {}, {}, {}, {}, {}, {}, {}, {}, {}, {},
    {}, {}, {}, {}, {}, {}, {}, {}, {}, {}, {}, {}, {},
    {}, {}, {}, {}, {}, {}, {}, {}, {}, {}, {}, {}, {},
    {}, {}, {}, {}, {}, {}, {}, {}, {}, {}, {}, {}, {},
    {}, {}, {}, {}, {}, {}, {}, {}, {}, {}, {}, {}, {},
    {}, {}, {}, {}, {}, {}, {}, {}, {}, {}, {}, {}, {},
    {}, {}, {}, {}, {}, {}, {}, {}, {}, {}, {}, {}, {},
    {}, {}, {}, {}, {}, {}, {}, {}, {}, {}, {}, {}, {},
    {}, {}, {}, {}, {}, {}, {}, {}, {}, {}, {}, {}, {},
    {}, {}, {}, {}, {}, {}, {}, {}, {}, {}, {}, {}, {},
    {}, {}, {}, {}, {}, {}, {}, {}, {}, {}, {}, {}, {},

  % k = 5
    {1}, {1}, {1}, {1}, {2}, {1}, {1}, {1}, {1}, {1}, {1}, {1}, {1},
    {2}, {2}, {2}, {2}, {}, {2}, {2}, {2}, {2}, {2}, {2}, {2}, {2},
    {}, {}, {}, {}, {}, {}, {}, {}, {}, {}, {}, {}, {},
    {}, {}, {}, {}, {}, {}, {}, {}, {}, {}, {}, {}, {},
    {}, {}, {}, {}, {}, {}, {}, {}, {}, {}, {}, {}, {},
    {}, {}, {}, {}, {}, {}, {}, {}, {}, {}, {}, {}, {},
    {}, {}, {}, {}, {}, {}, {}, {}, {}, {}, {}, {}, {},
    {}, {}, {}, {}, {}, {}, {}, {}, {}, {}, {}, {}, {},
    {}, {}, {}, {}, {}, {}, {}, {}, {}, {}, {}, {}, {},
    {}, {}, {}, {}, {}, {}, {}, {}, {}, {}, {}, {}, {},
    {}, {}, {}, {}, {}, {}, {}, {}, {}, {}, {}, {}, {},
    {}, {}, {}, {}, {}, {}, {}, {}, {}, {}, {}, {}, {},
    {}, {}, {}, {}, {}, {}, {}, {}, {}, {}, {}, {}, {},
    {}, {}, {}, {}, {}, {}, {}, {}, {}, {}, {}, {}, {},
    {}, {}, {}, {}, {}, {}, {}, {}, {}, {}, {}, {}, {},
    {}, {}, {}, {}, {}, {}, {}, {}, {}, {}, {}, {}, {},
    {}, {}, {}, {}, {}, {}, {}, {}, {}, {}, {}, {}, {},
    {}, {}, {}, {}, {}, {}, {}, {}, {}, {}, {}, {}, {},

  % k = 6
    {2, 5}, {2, 5}, {2, 5}, {2, 5}, {2, 5}, {3, 6}, {2, 5}, {2, 5}, {2, 5}, {2, 5}, {2, 5}, {2, 5}, {2, 5},
    {2}, {2}, {2}, {2}, {2}, {3}, {2}, {2}, {2}, {2}, {2}, {2}, {2},
    {}, {}, {}, {}, {}, {4}, {}, {}, {}, {}, {}, {}, {},
    {4}, {4}, {4}, {4}, {4}, {}, {4}, {4}, {4}, {4}, {4}, {4}, {4},
    {5}, {5}, {5}, {5}, {5}, {6}, {5}, {5}, {5}, {5}, {5}, {5}, {5},
    {7}, {7}, {7}, {7}, {7}, {}, {7}, {7}, {7}, {7}, {7}, {7}, {7},
    {8}, {8}, {8}, {8}, {8}, {}, {8}, {8}, {8}, {8}, {8}, {8}, {8},
    {9}, {9}, {9}, {9}, {9}, {}, {9}, {9}, {9}, {9}, {9}, {9}, {9},
    {3}, {3}, {3}, {3}, {3}, {}, {3}, {3}, {3}, {3}, {3}, {3}, {3},
    {}, {}, {}, {}, {}, {}, {}, {}, {}, {}, {}, {}, {},
    {}, {}, {}, {}, {}, {}, {}, {}, {}, {}, {}, {}, {},
    {}, {}, {}, {}, {}, {}, {}, {}, {}, {}, {}, {}, {},
    {}, {}, {}, {}, {}, {}, {}, {}, {}, {}, {}, {}, {},
    {}, {}, {}, {}, {}, {}, {}, {}, {}, {}, {}, {}, {},
    {}, {}, {}, {}, {}, {}, {}, {}, {}, {}, {}, {}, {},
    {}, {}, {}, {}, {}, {}, {}, {}, {}, {}, {}, {}, {},
    {}, {}, {}, {}, {}, {}, {}, {}, {}, {}, {}, {}, {},
    {}, {}, {}, {}, {}, {}, {}, {}, {}, {}, {}, {}, {},

  % k = 7
    {1}, {1}, {1}, {1}, {1}, {1}, {2}, {1}, {1}, {1}, {1}, {1}, {1},
    {2}, {2}, {2}, {2}, {2}, {2}, {}, {2}, {2}, {2}, {2}, {2}, {2},
    {}, {}, {}, {}, {}, {}, {}, {}, {}, {}, {}, {}, {},
    {}, {}, {}, {}, {}, {}, {}, {}, {}, {}, {}, {}, {},
    {}, {}, {}, {}, {}, {}, {}, {}, {}, {}, {}, {}, {},
    {}, {}, {}, {}, {}, {}, {}, {}, {}, {}, {}, {}, {},
    {}, {}, {}, {}, {}, {}, {}, {}, {}, {}, {}, {}, {},
    {}, {}, {}, {}, {}, {}, {}, {}, {}, {}, {}, {}, {},
    {}, {}, {}, {}, {}, {}, {}, {}, {}, {}, {}, {}, {},
    {}, {}, {}, {}, {}, {}, {}, {}, {}, {}, {}, {}, {},
    {}, {}, {}, {}, {}, {}, {}, {}, {}, {}, {}, {}, {},
    {}, {}, {}, {}, {}, {}, {}, {}, {}, {}, {}, {}, {},
    {}, {}, {}, {}, {}, {}, {}, {}, {}, {}, {}, {}, {},
    {}, {}, {}, {}, {}, {}, {}, {}, {}, {}, {}, {}, {},
    {}, {}, {}, {}, {}, {}, {}, {}, {}, {}, {}, {}, {},
    {}, {}, {}, {}, {}, {}, {}, {}, {}, {}, {}, {}, {},
    {}, {}, {}, {}, {}, {}, {}, {}, {}, {}, {}, {}, {},
    {}, {}, {}, {}, {}, {}, {}, {}, {}, {}, {}, {}, {},

  % k = 8
    {1}, {1}, {1}, {1}, {1}, {1}, {1}, {2}, {1}, {1}, {1}, {1}, {1},
    {2}, {2}, {2}, {2}, {2}, {2}, {2}, {}, {2}, {2}, {2}, {2}, {2},
    {}, {}, {}, {}, {}, {}, {}, {}, {}, {}, {}, {}, {},
    {}, {}, {}, {}, {}, {}, {}, {}, {}, {}, {}, {}, {},
    {}, {}, {}, {}, {}, {}, {}, {}, {}, {}, {}, {}, {},
    {}, {}, {}, {}, {}, {}, {}, {}, {}, {}, {}, {}, {},
    {}, {}, {}, {}, {}, {}, {}, {}, {}, {}, {}, {}, {},
    {}, {}, {}, {}, {}, {}, {}, {}, {}, {}, {}, {}, {},
    {}, {}, {}, {}, {}, {}, {}, {}, {}, {}, {}, {}, {},
    {}, {}, {}, {}, {}, {}, {}, {}, {}, {}, {}, {}, {},
    {}, {}, {}, {}, {}, {}, {}, {}, {}, {}, {}, {}, {},
    {}, {}, {}, {}, {}, {}, {}, {}, {}, {}, {}, {}, {},
    {}, {}, {}, {}, {}, {}, {}, {}, {}, {}, {}, {}, {},
    {}, {}, {}, {}, {}, {}, {}, {}, {}, {}, {}, {}, {},
    {}, {}, {}, {}, {}, {}, {}, {}, {}, {}, {}, {}, {},
    {}, {}, {}, {}, {}, {}, {}, {}, {}, {}, {}, {}, {},
    {}, {}, {}, {}, {}, {}, {}, {}, {}, {}, {}, {}, {},
    {}, {}, {}, {}, {}, {}, {}, {}, {}, {}, {}, {}, {},

  % k = 9
    {1}, {1}, {1}, {1}, {1}, {1}, {1}, {1}, {2}, {1}, {1}, {1}, {1},
    {2}, {2}, {2}, {2}, {2}, {2}, {2}, {2}, {}, {2}, {2}, {2}, {2},
    {}, {}, {}, {}, {}, {}, {}, {}, {}, {}, {}, {}, {},
    {}, {}, {}, {}, {}, {}, {}, {}, {}, {}, {}, {}, {},
    {}, {}, {}, {}, {}, {}, {}, {}, {}, {}, {}, {}, {},
    {}, {}, {}, {}, {}, {}, {}, {}, {}, {}, {}, {}, {},
    {}, {}, {}, {}, {}, {}, {}, {}, {}, {}, {}, {}, {},
    {}, {}, {}, {}, {}, {}, {}, {}, {}, {}, {}, {}, {},
    {}, {}, {}, {}, {}, {}, {}, {}, {}, {}, {}, {}, {},
    {}, {}, {}, {}, {}, {}, {}, {}, {}, {}, {}, {}, {},
    {}, {}, {}, {}, {}, {}, {}, {}, {}, {}, {}, {}, {},
    {}, {}, {}, {}, {}, {}, {}, {}, {}, {}, {}, {}, {},
    {}, {}, {}, {}, {}, {}, {}, {}, {}, {}, {}, {}, {},
    {}, {}, {}, {}, {}, {}, {}, {}, {}, {}, {}, {}, {},
    {}, {}, {}, {}, {}, {}, {}, {}, {}, {}, {}, {}, {},
    {}, {}, {}, {}, {}, {}, {}, {}, {}, {}, {}, {}, {},
    {}, {}, {}, {}, {}, {}, {}, {}, {}, {}, {}, {}, {},
    {}, {}, {}, {}, {}, {}, {}, {}, {}, {}, {}, {}, {},

  % k = 10
    {2, 9, 12, 17}, {2, 9, 12, 17}, {2, 9, 12, 17}, {2, 9, 12, 17}, {2, 9, 12, 17}, {2, 9, 12, 17}, {2, 9, 12, 17}, {2, 9, 12, 17}, {2, 9, 12, 17}, {3, 10, 13, 18}, {2, 9, 12, 17}, {2, 9, 12, 17}, {2, 9, 12, 17},
    {2}, {2}, {2}, {2}, {2}, {2}, {2}, {2}, {2}, {3}, {2}, {2}, {2},
    {}, {}, {}, {}, {}, {}, {}, {}, {}, {4}, {}, {}, {},
    {5}, {5}, {5}, {5}, {5}, {5}, {5}, {5}, {5}, {}, {5}, {5}, {5},
    {6}, {6}, {6}, {6}, {6}, {6}, {6}, {6}, {6}, {}, {6}, {6}, {6},
    {7}, {7}, {7}, {7}, {7}, {7}, {7}, {7}, {7}, {}, {7}, {7}, {7},
    {}, {}, {}, {}, {}, {}, {}, {}, {}, {8}, {}, {}, {},
    {8}, {8}, {8}, {8}, {8}, {8}, {8}, {8}, {8}, {}, {8}, {8}, {8},
    {9}, {9}, {9}, {9}, {9}, {9}, {9}, {9}, {9}, {10}, {9}, {9}, {9},
    {}, {}, {}, {}, {}, {}, {}, {}, {}, {11}, {}, {}, {},
    {4}, {4}, {4}, {4}, {4}, {4}, {4}, {4}, {4}, {}, {4}, {4}, {4},
    {12}, {12}, {12}, {12}, {12}, {12}, {12}, {12}, {12}, {13}, {12}, {12}, {12},
    {14}, {14}, {14}, {14}, {14}, {14}, {14}, {14}, {14}, {}, {14}, {14}, {14},
    {15}, {15}, {15}, {15}, {15}, {15}, {15}, {15}, {15}, {}, {15}, {15}, {15},
    {16}, {16}, {16}, {16}, {16}, {16}, {16}, {16}, {16}, {}, {16}, {16}, {16},
    {}, {}, {}, {}, {}, {}, {}, {}, {}, {7}, {}, {}, {},
    {17}, {17}, {17}, {17}, {17}, {17}, {17}, {17}, {17}, {18}, {17}, {17}, {17},
    {13}, {13}, {13}, {13}, {13}, {13}, {13}, {13}, {13}, {}, {13}, {13}, {13},

  % k = 11
    {1}, {1}, {1}, {1}, {1}, {1}, {1}, {1}, {1}, {1}, {2}, {1}, {1},
    {2}, {2}, {2}, {2}, {2}, {2}, {2}, {2}, {2}, {2}, {}, {2}, {2},
    {}, {}, {}, {}, {}, {}, {}, {}, {}, {}, {}, {}, {},
    {}, {}, {}, {}, {}, {}, {}, {}, {}, {}, {}, {}, {},
    {}, {}, {}, {}, {}, {}, {}, {}, {}, {}, {}, {}, {},
    {}, {}, {}, {}, {}, {}, {}, {}, {}, {}, {}, {}, {},
    {}, {}, {}, {}, {}, {}, {}, {}, {}, {}, {}, {}, {},
    {}, {}, {}, {}, {}, {}, {}, {}, {}, {}, {}, {}, {},
    {}, {}, {}, {}, {}, {}, {}, {}, {}, {}, {}, {}, {},
    {}, {}, {}, {}, {}, {}, {}, {}, {}, {}, {}, {}, {},
    {}, {}, {}, {}, {}, {}, {}, {}, {}, {}, {}, {}, {},
    {}, {}, {}, {}, {}, {}, {}, {}, {}, {}, {}, {}, {},
    {}, {}, {}, {}, {}, {}, {}, {}, {}, {}, {}, {}, {},
    {}, {}, {}, {}, {}, {}, {}, {}, {}, {}, {}, {}, {},
    {}, {}, {}, {}, {}, {}, {}, {}, {}, {}, {}, {}, {},
    {}, {}, {}, {}, {}, {}, {}, {}, {}, {}, {}, {}, {},
    {}, {}, {}, {}, {}, {}, {}, {}, {}, {}, {}, {}, {},
    {}, {}, {}, {}, {}, {}, {}, {}, {}, {}, {}, {}, {},

  % k = 12
    {1}, {1}, {1}, {1}, {1}, {1}, {1}, {1}, {1}, {1}, {1}, {2}, {1},
    {2}, {2}, {2}, {2}, {2}, {2}, {2}, {2}, {2}, {2}, {2}, {}, {2},
    {}, {}, {}, {}, {}, {}, {}, {}, {}, {}, {}, {}, {},
    {}, {}, {}, {}, {}, {}, {}, {}, {}, {}, {}, {}, {},
    {}, {}, {}, {}, {}, {}, {}, {}, {}, {}, {}, {}, {},
    {}, {}, {}, {}, {}, {}, {}, {}, {}, {}, {}, {}, {},
    {}, {}, {}, {}, {}, {}, {}, {}, {}, {}, {}, {}, {},
    {}, {}, {}, {}, {}, {}, {}, {}, {}, {}, {}, {}, {},
    {}, {}, {}, {}, {}, {}, {}, {}, {}, {}, {}, {}, {},
    {}, {}, {}, {}, {}, {}, {}, {}, {}, {}, {}, {}, {},
    {}, {}, {}, {}, {}, {}, {}, {}, {}, {}, {}, {}, {},
    {}, {}, {}, {}, {}, {}, {}, {}, {}, {}, {}, {}, {},
    {}, {}, {}, {}, {}, {}, {}, {}, {}, {}, {}, {}, {},
    {}, {}, {}, {}, {}, {}, {}, {}, {}, {}, {}, {}, {},
    {}, {}, {}, {}, {}, {}, {}, {}, {}, {}, {}, {}, {},
    {}, {}, {}, {}, {}, {}, {}, {}, {}, {}, {}, {}, {},
    {}, {}, {}, {}, {}, {}, {}, {}, {}, {}, {}, {}, {},
    {}, {}, {}, {}, {}, {}, {}, {}, {}, {}, {}, {}, {}
]);
